c File: data_files/evolved_graphs/g0093.col
c
c Auto generated graph
c
p edge 100 249
e 1 4
e 1 5
e 1 7
e 1 10
e 1 11
e 1 12
e 1 13
e 1 14
e 1 15
e 1 17
e 1 19
e 1 20
e 1 21
e 1 22
e 1 24
e 1 26
e 1 27
e 1 28
e 1 29
e 1 30
e 1 31
e 1 32
e 1 33
e 1 34
e 1 35
e 1 39
e 1 41
e 1 42
e 1 44
e 1 45
e 1 46
e 1 47
e 1 49
e 1 52
e 1 53
e 1 55
e 1 56
e 1 58
e 1 60
e 1 62
e 1 63
e 1 64
e 1 66
e 1 67
e 1 71
e 1 72
e 1 73
e 1 74
e 1 75
e 1 76
e 1 80
e 1 82
e 1 84
e 1 85
e 1 87
e 1 88
e 1 92
e 1 93
e 1 96
e 1 97
e 1 99
e 1 100
e 2 4
e 2 7
e 2 9
e 2 10
e 2 11
e 2 12
e 2 13
e 2 14
e 2 15
e 2 16
e 2 17
e 2 18
e 2 19
e 2 22
e 2 23
e 2 24
e 2 25
e 2 26
e 2 27
e 2 28
e 2 29
e 2 30
e 2 31
e 2 32
e 2 33
e 2 35
e 2 36
e 2 37
e 2 38
e 2 39
e 2 40
e 2 41
e 2 42
e 2 44
e 2 47
e 2 49
e 2 50
e 2 51
e 2 53
e 2 54
e 2 55
e 2 59
e 2 60
e 2 61
e 2 63
e 2 64
e 2 65
e 2 68
e 2 69
e 2 70
e 2 71
e 2 72
e 2 73
e 2 74
e 2 77
e 2 78
e 2 81
e 2 82
e 2 83
e 2 84
e 2 86
e 2 87
e 2 88
e 2 90
e 2 91
e 2 92
e 2 93
e 2 94
e 2 95
e 2 96
e 2 97
e 3 4
e 3 5
e 3 6
e 3 8
e 3 10
e 3 11
e 3 13
e 3 14
e 3 16
e 3 21
e 3 22
e 3 23
e 3 24
e 3 27
e 3 28
e 3 29
e 3 30
e 3 31
e 3 32
e 3 33
e 3 34
e 3 36
e 3 38
e 3 39
e 3 42
e 3 43
e 3 44
e 3 45
e 3 46
e 3 47
e 3 48
e 3 49
e 3 51
e 3 52
e 3 57
e 3 58
e 3 59
e 3 60
e 3 61
e 3 62
e 3 64
e 3 67
e 3 68
e 3 69
e 3 70
e 3 71
e 3 72
e 3 74
e 3 75
e 3 76
e 3 77
e 3 79
e 3 80
e 3 81
e 3 82
e 3 83
e 3 84
e 3 86
e 3 87
e 3 89
e 3 93
e 3 94
e 3 95
e 3 97
e 3 98
e 3 99
e 3 100
e 4 95
e 7 56
e 8 58
e 9 32
e 9 57
e 10 52
e 10 100
e 11 18
e 11 44
e 12 63
e 14 74
e 15 87
e 16 37
e 16 86
e 20 82
e 22 26
e 22 89
e 23 63
e 24 100
e 26 45
e 30 61
e 31 67
e 36 41
e 38 63
e 40 58
e 40 92
e 42 99
e 44 70
e 46 57
e 47 62
e 47 76
e 49 60
e 52 67
e 53 88
e 55 95
e 58 76
e 58 94
e 58 98
e 59 67
e 59 89
e 60 80
e 68 89
e 70 98
e 71 86
e 73 98
e 77 78
e 77 93
e 88 94
e 90 98
